\ LP format - for model browsing. Use MPS format to capture full model detail.
Minimize
  x0 + x1 + x2 + x3 + x4 + x5 + x6 + x7 + x8 + x9 + x10 + x11 + x12 + x13
   + x14 + x15 + x16 + x17 + x18 + x19 + x20 + x21 + x22 + x23 + x24 + x25
   + x26 + x27 + x28 + x29 + x30 + x31 + x32 + x33 + x34 + x35 + x36 + x37
   + x38 + x39 + x40 + x41 + x42 + x43 + x44 + x45 + x46 + x47 + x48 + x49
   + x50 + x51 + x52 + x53 + x54 + x55 + x56 + x57 + x58 + x59 + x60 + x61
   + x62 + x63 + x64 + x65 + x66 + x67 + x68 + x69 + x70 + x71 + x72 + x73
   + x74 + x75 + x76 + x77 + x78 + x79 + x80 + x81 + x82 + x83 + x84 + x85
   + x86 + x87 + x88 + x89 + x90 + x91 + x92 + x93 + x94 + x95 + x96 + x97
   + x98 + x99 + x100 + x101 + x102 + x103 + x104 + x105 + x106 + x107
   + x108 + x109 + x110 + x111 + x112 + x113 + x114 + x115 + x116 + x117
   + x118 + x119 + x120 + x121 + x122 + x123 + x124 + x125 + x126 + x127
   + x128 + x129 + x130 + x131 + x132 + x133 + x134 + x135 + x136 + x137
   + x138 + x139 + x140 + x141 + x142 + x143 + x144 + x145 + x146 + x147
   + x148 + x149 + x150 + x151 + x152 + x153 + x154 + x155 + x156 + x157
   + x158 + x159 + x160 + x161 + x162 + x163 + x164 + x165 + x166 + x167
   + x168 + x169 + x170 + x171 + x172 + x173 + x174 + x175 + x176 + x177
   + x178 + x179 + x180 + x181 + x182 + x183 + x184 + x185 + x186 + x187
   + x188 + x189 + x190 + x191 + x192 + x193 + x194 + x195 + x196 + x197
   + x198 + x199 + x200 + x201 + x202 + x203 + x204 + x205 + x206 + x207
   + x208 + x209 + x210 + x211 + x212 + x213 + x214 + x215 + x216 + x217
   + x218 + x219 + x220 + x221 + x222 + x223 + x224 + x225 + x226 + x227
   + x228 + x229 + x230 + x231 + x232 + x233 + x234 + x235 + x236 + x237
   + x238 + x239 + x240 + x241 + x242
Subject To
 R0: x0 = 1
 qc0: [ x0 * x10 + x1 * x11 + x2 * x12 + x3 * x13 + x4 * x14 + x5 * x15
   + x6 * x16 + x7 * x17 + x8 * x18 + x9 * x19 + x10 * x20 + x11 * x21
   + x12 * x22 + x13 * x23 + x14 * x24 + x15 * x25 + x16 * x26 + x17 * x27
   + x18 * x28 + x19 * x29 + x20 * x30 + x21 * x31 + x22 * x32 + x23 * x33
   + x24 * x34 + x25 * x35 + x26 * x36 + x27 * x37 + x28 * x38 + x29 * x39
   + x30 * x40 + x31 * x41 + x32 * x42 + x33 * x43 + x34 * x44 + x35 * x45
   + x36 * x46 + x37 * x47 + x38 * x48 + x39 * x49 + x40 * x50 + x41 * x51
   + x42 * x52 + x43 * x53 + x44 * x54 + x45 * x55 + x46 * x56 + x47 * x57
   + x48 * x58 + x49 * x59 + x50 * x60 + x51 * x61 + x52 * x62 + x53 * x63
   + x54 * x64 + x55 * x65 + x56 * x66 + x57 * x67 + x58 * x68 + x59 * x69
   + x60 * x70 + x61 * x71 + x62 * x72 + x63 * x73 + x64 * x74 + x65 * x75
   + x66 * x76 + x67 * x77 + x68 * x78 + x69 * x79 + x70 * x80 + x71 * x81
   + x72 * x82 + x73 * x83 + x74 * x84 + x75 * x85 + x76 * x86 + x77 * x87
   + x78 * x88 + x79 * x89 + x80 * x90 + x81 * x91 + x82 * x92 + x83 * x93
   + x84 * x94 + x85 * x95 + x86 * x96 + x87 * x97 + x88 * x98 + x89 * x99
   + x90 * x100 + x91 * x101 + x92 * x102 + x93 * x103 + x94 * x104
   + x95 * x105 + x96 * x106 + x97 * x107 + x98 * x108 + x99 * x109
   + x100 * x110 + x101 * x111 + x102 * x112 + x103 * x113 + x104 * x114
   + x105 * x115 + x106 * x116 + x107 * x117 + x108 * x118 + x109 * x119
   + x110 * x120 + x111 * x121 + x112 * x122 + x113 * x123 + x114 * x124
   + x115 * x125 + x116 * x126 + x117 * x127 + x118 * x128 + x119 * x129
   + x120 * x130 + x121 * x131 + x122 * x132 + x123 * x133 + x124 * x134
   + x125 * x135 + x126 * x136 + x127 * x137 + x128 * x138 + x129 * x139
   + x130 * x140 + x131 * x141 + x132 * x142 + x133 * x143 + x134 * x144
   + x135 * x145 + x136 * x146 + x137 * x147 + x138 * x148 + x139 * x149
   + x140 * x150 + x141 * x151 + x142 * x152 + x143 * x153 + x144 * x154
   + x145 * x155 + x146 * x156 + x147 * x157 + x148 * x158 + x149 * x159
   + x150 * x160 + x151 * x161 + x152 * x162 + x153 * x163 + x154 * x164
   + x155 * x165 + x156 * x166 + x157 * x167 + x158 * x168 + x159 * x169
   + x160 * x170 + x161 * x171 + x162 * x172 + x163 * x173 + x164 * x174
   + x165 * x175 + x166 * x176 + x167 * x177 + x168 * x178 + x169 * x179
   + x170 * x180 + x171 * x181 + x172 * x182 + x173 * x183 + x174 * x184
   + x175 * x185 + x176 * x186 + x177 * x187 + x178 * x188 + x179 * x189
   + x180 * x190 + x181 * x191 + x182 * x192 + x183 * x193 + x184 * x194
   + x185 * x195 + x186 * x196 + x187 * x197 + x188 * x198 + x189 * x199
   + x190 * x200 + x191 * x201 + x192 * x202 + x193 * x203 + x194 * x204
   + x195 * x205 + x196 * x206 + x197 * x207 + x198 * x208 + x199 * x209
   + x200 * x210 + x201 * x211 + x202 * x212 + x203 * x213 + x204 * x214
   + x205 * x215 + x206 * x216 + x207 * x217 + x208 * x218 + x209 * x219
   + x210 * x220 + x211 * x221 + x212 * x222 + x213 * x223 + x214 * x224
   + x215 * x225 + x216 * x226 + x217 * x227 + x218 * x228 + x219 * x229
   + x220 * x230 + x221 * x231 + x222 * x232 + x223 * x233 + x224 * x234
   + x225 * x235 + x226 * x236 + x227 * x237 + x228 * x238 + x229 * x239
   + x230 * x240 + x231 * x241 + x232 * x242 ] >= 1
 qc1: [ x0 * x30 + x1 * x31 + x2 * x32 + x3 * x33 + x4 * x34 + x5 * x35
   + x6 * x36 + x7 * x37 + x8 * x38 + x9 * x39 + x10 * x40 + x11 * x41
   + x12 * x42 + x13 * x43 + x14 * x44 + x15 * x45 + x16 * x46 + x17 * x47
   + x18 * x48 + x19 * x49 + x20 * x50 + x21 * x51 + x22 * x52 + x23 * x53
   + x24 * x54 + x25 * x55 + x26 * x56 + x27 * x57 + x28 * x58 + x29 * x59
   + x30 * x60 + x31 * x61 + x32 * x62 + x33 * x63 + x34 * x64 + x35 * x65
   + x36 * x66 + x37 * x67 + x38 * x68 + x39 * x69 + x40 * x70 + x41 * x71
   + x42 * x72 + x43 * x73 + x44 * x74 + x45 * x75 + x46 * x76 + x47 * x77
   + x48 * x78 + x49 * x79 + x50 * x80 + x51 * x81 + x52 * x82 + x53 * x83
   + x54 * x84 + x55 * x85 + x56 * x86 + x57 * x87 + x58 * x88 + x59 * x89
   + x60 * x90 + x61 * x91 + x62 * x92 + x63 * x93 + x64 * x94 + x65 * x95
   + x66 * x96 + x67 * x97 + x68 * x98 + x69 * x99 + x70 * x100
   + x71 * x101 + x72 * x102 + x73 * x103 + x74 * x104 + x75 * x105
   + x76 * x106 + x77 * x107 + x78 * x108 + x79 * x109 + x80 * x110
   + x81 * x111 + x82 * x112 + x83 * x113 + x84 * x114 + x85 * x115
   + x86 * x116 + x87 * x117 + x88 * x118 + x89 * x119 + x90 * x120
   + x91 * x121 + x92 * x122 + x93 * x123 + x94 * x124 + x95 * x125
   + x96 * x126 + x97 * x127 + x98 * x128 + x99 * x129 + x100 * x130
   + x101 * x131 + x102 * x132 + x103 * x133 + x104 * x134 + x105 * x135
   + x106 * x136 + x107 * x137 + x108 * x138 + x109 * x139 + x110 * x140
   + x111 * x141 + x112 * x142 + x113 * x143 + x114 * x144 + x115 * x145
   + x116 * x146 + x117 * x147 + x118 * x148 + x119 * x149 + x120 * x150
   + x121 * x151 + x122 * x152 + x123 * x153 + x124 * x154 + x125 * x155
   + x126 * x156 + x127 * x157 + x128 * x158 + x129 * x159 + x130 * x160
   + x131 * x161 + x132 * x162 + x133 * x163 + x134 * x164 + x135 * x165
   + x136 * x166 + x137 * x167 + x138 * x168 + x139 * x169 + x140 * x170
   + x141 * x171 + x142 * x172 + x143 * x173 + x144 * x174 + x145 * x175
   + x146 * x176 + x147 * x177 + x148 * x178 + x149 * x179 + x150 * x180
   + x151 * x181 + x152 * x182 + x153 * x183 + x154 * x184 + x155 * x185
   + x156 * x186 + x157 * x187 + x158 * x188 + x159 * x189 + x160 * x190
   + x161 * x191 + x162 * x192 + x163 * x193 + x164 * x194 + x165 * x195
   + x166 * x196 + x167 * x197 + x168 * x198 + x169 * x199 + x170 * x200
   + x171 * x201 + x172 * x202 + x173 * x203 + x174 * x204 + x175 * x205
   + x176 * x206 + x177 * x207 + x178 * x208 + x179 * x209 + x180 * x210
   + x181 * x211 + x182 * x212 + x183 * x213 + x184 * x214 + x185 * x215
   + x186 * x216 + x187 * x217 + x188 * x218 + x189 * x219 + x190 * x220
   + x191 * x221 + x192 * x222 + x193 * x223 + x194 * x224 + x195 * x225
   + x196 * x226 + x197 * x227 + x198 * x228 + x199 * x229 + x200 * x230
   + x201 * x231 + x202 * x232 + x203 * x233 + x204 * x234 + x205 * x235
   + x206 * x236 + x207 * x237 + x208 * x238 + x209 * x239 + x210 * x240
   + x211 * x241 + x212 * x242 ] >= 1
 qc2: [ x0 * x32 + x1 * x33 + x2 * x34 + x3 * x35 + x4 * x36 + x5 * x37
   + x6 * x38 + x7 * x39 + x8 * x40 + x9 * x41 + x10 * x42 + x11 * x43
   + x12 * x44 + x13 * x45 + x14 * x46 + x15 * x47 + x16 * x48 + x17 * x49
   + x18 * x50 + x19 * x51 + x20 * x52 + x21 * x53 + x22 * x54 + x23 * x55
   + x24 * x56 + x25 * x57 + x26 * x58 + x27 * x59 + x28 * x60 + x29 * x61
   + x30 * x62 + x31 * x63 + x32 * x64 + x33 * x65 + x34 * x66 + x35 * x67
   + x36 * x68 + x37 * x69 + x38 * x70 + x39 * x71 + x40 * x72 + x41 * x73
   + x42 * x74 + x43 * x75 + x44 * x76 + x45 * x77 + x46 * x78 + x47 * x79
   + x48 * x80 + x49 * x81 + x50 * x82 + x51 * x83 + x52 * x84 + x53 * x85
   + x54 * x86 + x55 * x87 + x56 * x88 + x57 * x89 + x58 * x90 + x59 * x91
   + x60 * x92 + x61 * x93 + x62 * x94 + x63 * x95 + x64 * x96 + x65 * x97
   + x66 * x98 + x67 * x99 + x68 * x100 + x69 * x101 + x70 * x102
   + x71 * x103 + x72 * x104 + x73 * x105 + x74 * x106 + x75 * x107
   + x76 * x108 + x77 * x109 + x78 * x110 + x79 * x111 + x80 * x112
   + x81 * x113 + x82 * x114 + x83 * x115 + x84 * x116 + x85 * x117
   + x86 * x118 + x87 * x119 + x88 * x120 + x89 * x121 + x90 * x122
   + x91 * x123 + x92 * x124 + x93 * x125 + x94 * x126 + x95 * x127
   + x96 * x128 + x97 * x129 + x98 * x130 + x99 * x131 + x100 * x132
   + x101 * x133 + x102 * x134 + x103 * x135 + x104 * x136 + x105 * x137
   + x106 * x138 + x107 * x139 + x108 * x140 + x109 * x141 + x110 * x142
   + x111 * x143 + x112 * x144 + x113 * x145 + x114 * x146 + x115 * x147
   + x116 * x148 + x117 * x149 + x118 * x150 + x119 * x151 + x120 * x152
   + x121 * x153 + x122 * x154 + x123 * x155 + x124 * x156 + x125 * x157
   + x126 * x158 + x127 * x159 + x128 * x160 + x129 * x161 + x130 * x162
   + x131 * x163 + x132 * x164 + x133 * x165 + x134 * x166 + x135 * x167
   + x136 * x168 + x137 * x169 + x138 * x170 + x139 * x171 + x140 * x172
   + x141 * x173 + x142 * x174 + x143 * x175 + x144 * x176 + x145 * x177
   + x146 * x178 + x147 * x179 + x148 * x180 + x149 * x181 + x150 * x182
   + x151 * x183 + x152 * x184 + x153 * x185 + x154 * x186 + x155 * x187
   + x156 * x188 + x157 * x189 + x158 * x190 + x159 * x191 + x160 * x192
   + x161 * x193 + x162 * x194 + x163 * x195 + x164 * x196 + x165 * x197
   + x166 * x198 + x167 * x199 + x168 * x200 + x169 * x201 + x170 * x202
   + x171 * x203 + x172 * x204 + x173 * x205 + x174 * x206 + x175 * x207
   + x176 * x208 + x177 * x209 + x178 * x210 + x179 * x211 + x180 * x212
   + x181 * x213 + x182 * x214 + x183 * x215 + x184 * x216 + x185 * x217
   + x186 * x218 + x187 * x219 + x188 * x220 + x189 * x221 + x190 * x222
   + x191 * x223 + x192 * x224 + x193 * x225 + x194 * x226 + x195 * x227
   + x196 * x228 + x197 * x229 + x198 * x230 + x199 * x231 + x200 * x232
   + x201 * x233 + x202 * x234 + x203 * x235 + x204 * x236 + x205 * x237
   + x206 * x238 + x207 * x239 + x208 * x240 + x209 * x241 + x210 * x242 ]
   >= 1
 qc3: [ x0 * x62 + x1 * x63 + x2 * x64 + x3 * x65 + x4 * x66 + x5 * x67
   + x6 * x68 + x7 * x69 + x8 * x70 + x9 * x71 + x10 * x72 + x11 * x73
   + x12 * x74 + x13 * x75 + x14 * x76 + x15 * x77 + x16 * x78 + x17 * x79
   + x18 * x80 + x19 * x81 + x20 * x82 + x21 * x83 + x22 * x84 + x23 * x85
   + x24 * x86 + x25 * x87 + x26 * x88 + x27 * x89 + x28 * x90 + x29 * x91
   + x30 * x92 + x31 * x93 + x32 * x94 + x33 * x95 + x34 * x96 + x35 * x97
   + x36 * x98 + x37 * x99 + x38 * x100 + x39 * x101 + x40 * x102
   + x41 * x103 + x42 * x104 + x43 * x105 + x44 * x106 + x45 * x107
   + x46 * x108 + x47 * x109 + x48 * x110 + x49 * x111 + x50 * x112
   + x51 * x113 + x52 * x114 + x53 * x115 + x54 * x116 + x55 * x117
   + x56 * x118 + x57 * x119 + x58 * x120 + x59 * x121 + x60 * x122
   + x61 * x123 + x62 * x124 + x63 * x125 + x64 * x126 + x65 * x127
   + x66 * x128 + x67 * x129 + x68 * x130 + x69 * x131 + x70 * x132
   + x71 * x133 + x72 * x134 + x73 * x135 + x74 * x136 + x75 * x137
   + x76 * x138 + x77 * x139 + x78 * x140 + x79 * x141 + x80 * x142
   + x81 * x143 + x82 * x144 + x83 * x145 + x84 * x146 + x85 * x147
   + x86 * x148 + x87 * x149 + x88 * x150 + x89 * x151 + x90 * x152
   + x91 * x153 + x92 * x154 + x93 * x155 + x94 * x156 + x95 * x157
   + x96 * x158 + x97 * x159 + x98 * x160 + x99 * x161 + x100 * x162
   + x101 * x163 + x102 * x164 + x103 * x165 + x104 * x166 + x105 * x167
   + x106 * x168 + x107 * x169 + x108 * x170 + x109 * x171 + x110 * x172
   + x111 * x173 + x112 * x174 + x113 * x175 + x114 * x176 + x115 * x177
   + x116 * x178 + x117 * x179 + x118 * x180 + x119 * x181 + x120 * x182
   + x121 * x183 + x122 * x184 + x123 * x185 + x124 * x186 + x125 * x187
   + x126 * x188 + x127 * x189 + x128 * x190 + x129 * x191 + x130 * x192
   + x131 * x193 + x132 * x194 + x133 * x195 + x134 * x196 + x135 * x197
   + x136 * x198 + x137 * x199 + x138 * x200 + x139 * x201 + x140 * x202
   + x141 * x203 + x142 * x204 + x143 * x205 + x144 * x206 + x145 * x207
   + x146 * x208 + x147 * x209 + x148 * x210 + x149 * x211 + x150 * x212
   + x151 * x213 + x152 * x214 + x153 * x215 + x154 * x216 + x155 * x217
   + x156 * x218 + x157 * x219 + x158 * x220 + x159 * x221 + x160 * x222
   + x161 * x223 + x162 * x224 + x163 * x225 + x164 * x226 + x165 * x227
   + x166 * x228 + x167 * x229 + x168 * x230 + x169 * x231 + x170 * x232
   + x171 * x233 + x172 * x234 + x173 * x235 + x174 * x236 + x175 * x237
   + x176 * x238 + x177 * x239 + x178 * x240 + x179 * x241 + x180 * x242 ]
   >= 1
 qc4: [ x0 * x108 + x1 * x109 + x2 * x110 + x3 * x111 + x4 * x112
   + x5 * x113 + x6 * x114 + x7 * x115 + x8 * x116 + x9 * x117 + x10 * x118
   + x11 * x119 + x12 * x120 + x13 * x121 + x14 * x122 + x15 * x123
   + x16 * x124 + x17 * x125 + x18 * x126 + x19 * x127 + x20 * x128
   + x21 * x129 + x22 * x130 + x23 * x131 + x24 * x132 + x25 * x133
   + x26 * x134 + x27 * x135 + x28 * x136 + x29 * x137 + x30 * x138
   + x31 * x139 + x32 * x140 + x33 * x141 + x34 * x142 + x35 * x143
   + x36 * x144 + x37 * x145 + x38 * x146 + x39 * x147 + x40 * x148
   + x41 * x149 + x42 * x150 + x43 * x151 + x44 * x152 + x45 * x153
   + x46 * x154 + x47 * x155 + x48 * x156 + x49 * x157 + x50 * x158
   + x51 * x159 + x52 * x160 + x53 * x161 + x54 * x162 + x55 * x163
   + x56 * x164 + x57 * x165 + x58 * x166 + x59 * x167 + x60 * x168
   + x61 * x169 + x62 * x170 + x63 * x171 + x64 * x172 + x65 * x173
   + x66 * x174 + x67 * x175 + x68 * x176 + x69 * x177 + x70 * x178
   + x71 * x179 + x72 * x180 + x73 * x181 + x74 * x182 + x75 * x183
   + x76 * x184 + x77 * x185 + x78 * x186 + x79 * x187 + x80 * x188
   + x81 * x189 + x82 * x190 + x83 * x191 + x84 * x192 + x85 * x193
   + x86 * x194 + x87 * x195 + x88 * x196 + x89 * x197 + x90 * x198
   + x91 * x199 + x92 * x200 + x93 * x201 + x94 * x202 + x95 * x203
   + x96 * x204 + x97 * x205 + x98 * x206 + x99 * x207 + x100 * x208
   + x101 * x209 + x102 * x210 + x103 * x211 + x104 * x212 + x105 * x213
   + x106 * x214 + x107 * x215 + x108 * x216 + x109 * x217 + x110 * x218
   + x111 * x219 + x112 * x220 + x113 * x221 + x114 * x222 + x115 * x223
   + x116 * x224 + x117 * x225 + x118 * x226 + x119 * x227 + x120 * x228
   + x121 * x229 + x122 * x230 + x123 * x231 + x124 * x232 + x125 * x233
   + x126 * x234 + x127 * x235 + x128 * x236 + x129 * x237 + x130 * x238
   + x131 * x239 + x132 * x240 + x133 * x241 + x134 * x242 ] >= 1
Bounds
Binaries
 x0 x1 x2 x3 x4 x5 x6 x7 x8 x9 x10 x11 x12 x13 x14 x15 x16 x17 x18 x19 x20
 x21 x22 x23 x24 x25 x26 x27 x28 x29 x30 x31 x32 x33 x34 x35 x36 x37 x38
 x39 x40 x41 x42 x43 x44 x45 x46 x47 x48 x49 x50 x51 x52 x53 x54 x55 x56
 x57 x58 x59 x60 x61 x62 x63 x64 x65 x66 x67 x68 x69 x70 x71 x72 x73 x74
 x75 x76 x77 x78 x79 x80 x81 x82 x83 x84 x85 x86 x87 x88 x89 x90 x91 x92
 x93 x94 x95 x96 x97 x98 x99 x100 x101 x102 x103 x104 x105 x106 x107 x108
 x109 x110 x111 x112 x113 x114 x115 x116 x117 x118 x119 x120 x121 x122 x123
 x124 x125 x126 x127 x128 x129 x130 x131 x132 x133 x134 x135 x136 x137 x138
 x139 x140 x141 x142 x143 x144 x145 x146 x147 x148 x149 x150 x151 x152 x153
 x154 x155 x156 x157 x158 x159 x160 x161 x162 x163 x164 x165 x166 x167 x168
 x169 x170 x171 x172 x173 x174 x175 x176 x177 x178 x179 x180 x181 x182 x183
 x184 x185 x186 x187 x188 x189 x190 x191 x192 x193 x194 x195 x196 x197 x198
 x199 x200 x201 x202 x203 x204 x205 x206 x207 x208 x209 x210 x211 x212 x213
 x214 x215 x216 x217 x218 x219 x220 x221 x222 x223 x224 x225 x226 x227 x228
 x229 x230 x231 x232 x233 x234 x235 x236 x237 x238 x239 x240 x241 x242
End
